p edge 50 126 15
v 3 5 17 43
v 2 29 42
v 5 4 12 19 46 47
v 3 9 16 44
v 5 1 2 24 25 31
v 4 8 13 36 41
v 2 6 18
v 3 26 37 38
v 5 7 14 27 30 45
v 3 10 11 49
v 4 15 22 32 34
v 2 21 40
v 5 20 28 33 39 50
v 1 3
v 3 23 35 48
e 1 6
e 2 5
e 2 7
e 3 24
e 3 40
e 3 50
e 4 7
e 4 13
e 4 17
e 4 23
e 4 25
e 4 35
e 4 37
e 4 44
e 5 19
e 5 21
e 5 27
e 5 39
e 5 41
e 5 45
e 5 50
e 6 22
e 6 32
e 6 41
e 7 14
e 7 24
e 7 36
e 8 41
e 9 31
e 9 45
e 9 48
e 10 12
e 10 16
e 10 24
e 10 36
e 10 44
e 11 13
e 11 34
e 11 44
e 12 19
e 12 21
e 12 22
e 12 23
e 12 26
e 12 27
e 12 29
e 12 30
e 12 48
e 13 17
e 13 42
e 14 18
e 14 20
e 14 36
e 14 42
e 14 48
e 15 31
e 16 24
e 16 30
e 16 32
e 17 39
e 17 46
e 18 20
e 18 23
e 18 36
e 18 43
e 18 47
e 20 41
e 20 42
e 21 40
e 21 42
e 21 47
e 22 26
e 22 39
e 22 43
e 22 44
e 22 45
e 22 49
e 23 41
e 24 27
e 24 30
e 24 38
e 24 39
e 24 50
e 25 29
e 25 39
e 25 47
e 25 50
e 26 36
e 26 41
e 26 45
e 27 28
e 27 31
e 27 38
e 27 49
e 28 40
e 28 50
e 29 37
e 29 47
e 29 49
e 30 36
e 30 45
e 31 37
e 31 40
e 32 33
e 32 36
e 33 37
e 33 39
e 33 42
e 33 43
e 33 44
e 35 40
e 36 43
e 36 47
e 36 48
e 37 39
e 37 40
e 38 46
e 39 41
e 39 50
e 40 49
e 42 48
e 43 46
e 43 48
e 44 49
e 44 50
e 45 50
